Li15 In16 S32
1.0
  13.0408638600000000    0.0000000000000000    0.0000000000000000
   0.0000000000000000   13.8609413600000000    0.0000000000000000
   0.0000000000000000    0.0000000000000000    8.0885981499999993
Li In S
15 16 32
direct
   0.2834143700000001    0.2926613550000000    0.1223769000000000 Li
   0.2834143700000001    0.7926613550000000    0.1223769000000000 Li
   0.7834143700000001    0.5426613550000000    0.1223769000000000 Li
   0.4084143700000000    0.5000000000000000    0.5000000000000000 Li
   0.0334143700000000    0.7073386450000001    0.8776231000000000 Li
   0.5334143700000000    0.2073386450000000    0.8776231000000000 Li
   0.5334143700000000    0.7073386450000001    0.8776231000000000 Li
   0.0334143700000000    0.4573386450000000    0.6223769000000000 Li
   0.0334143700000000    0.9573386450000000    0.6223769000000000 Li
   0.5334143700000000    0.4573386450000000    0.6223769000000000 Li
   0.5334143700000000    0.9573386450000000    0.6223769000000000 Li
   0.2834143700000001    0.0426613550000000    0.3776231000000000 Li
   0.2834143700000001    0.5426613550000000    0.3776231000000000 Li
   0.7834143700000001    0.0426613550000000    0.3776231000000000 Li
   0.7834143700000001    0.5426613550000000    0.3776231000000000 Li
   0.0321031550000000    0.4593503350000000    0.1256045100000000 In
   0.0321031550000000    0.9593503350000000    0.1256045100000000 In
   0.5321031550000000    0.4593503350000000    0.1256045100000000 In
   0.5321031550000000    0.9593503350000000    0.1256045100000000 In
   0.2821031550000000    0.0406496650000000    0.8743954900000001 In
   0.2821031550000000    0.5406496650000000    0.8743954900000001 In
   0.7821031549999999    0.0406496650000000    0.8743954900000001 In
   0.7821031549999999    0.5406496650000000    0.8743954900000001 In
   0.2821031550000000    0.2906496650000000    0.6256045100000002 In
   0.2821031550000000    0.7906496650000000    0.6256045100000002 In
   0.7821031549999999    0.2906496650000000    0.6256045100000002 In
   0.7821031549999999    0.7906496650000000    0.6256045100000002 In
   0.0321031550000000    0.2093503350000000    0.3743954900000000 In
   0.0321031550000000    0.7093503350000000    0.3743954900000000 In
   0.5321031550000000    0.2093503350000000    0.3743954900000000 In
   0.5321031550000000    0.7093503350000000    0.3743954900000000 In
   0.0960287900000000    0.0415079950000000    0.3766202100000000 S
   0.0960287900000000    0.5415079949999999    0.3766202100000000 S
   0.5960287900000000    0.0415079950000000    0.3766202100000000 S
   0.5960287900000000    0.5415079949999999    0.3766202100000000 S
   0.3460287900000000    0.4584920050000000    0.6233797900000000 S
   0.3460287900000000    0.9584920050000000    0.6233797900000000 S
   0.8460287900000000    0.4584920050000000    0.6233797900000000 S
   0.8460287900000000    0.9584920050000000    0.6233797900000000 S
   0.3460287900000000    0.2084920050000000    0.8766202100000001 S
   0.3460287900000000    0.7084920050000001    0.8766202100000001 S
   0.8460287900000000    0.2084920050000000    0.8766202100000001 S
   0.8460287900000000    0.7084920050000001    0.8766202100000001 S
   0.0960287900000000    0.2915079950000000    0.1233797900000000 S
   0.0960287900000000    0.7915079950000000    0.1233797900000000 S
   0.5960287900000000    0.2915079950000000    0.1233797900000000 S
   0.5960287900000000    0.7915079950000000    0.1233797900000000 S
   0.3420536850000001    0.4597446800000000    0.1283171300000000 S
   0.3420536850000001    0.9597446800000000    0.1283171300000000 S
   0.8420536850000001    0.4597446800000000    0.1283171300000000 S
   0.8420536850000001    0.9597446800000000    0.1283171300000000 S
   0.0920536850000000    0.0402553200000000    0.8716828700000000 S
   0.0920536850000000    0.5402553200000000    0.8716828700000000 S
   0.5920536850000000    0.0402553200000000    0.8716828700000000 S
   0.5920536850000000    0.5402553200000000    0.8716828700000000 S
   0.0920536850000000    0.2902553199999999    0.6283171300000000 S
   0.0920536850000000    0.7902553200000000    0.6283171300000000 S
   0.5920536850000000    0.2902553199999999    0.6283171300000000 S
   0.5920536850000000    0.7902553200000000    0.6283171300000000 S
   0.3420536850000001    0.2097446800000000    0.3716828700000001 S
   0.3420536850000001    0.7097446800000000    0.3716828700000001 S
   0.8420536850000001    0.2097446800000000    0.3716828700000001 S
   0.8420536850000001    0.7097446800000000    0.3716828700000001 S
