Li15 In16 Ge8 S48
1.0
   7.2226080000000001   12.3881800000000002    0.0000000000000000
  -7.2226080000000001   12.3881800000000002    0.0000000000000000
   0.0000000000000000    4.2454349999999996   11.5825069999999997
Li In Ge S
15 16 8 48
direct
   0.2955224999999995    0.4979619999999996    0.1594680000000000 Li
   0.2955224999999995    0.9979619999999997    0.1594680000000000 Li
   0.7955224999999995    0.4979619999999996    0.1594680000000000 Li
   0.4979619999999995    0.2955224999999996    0.6594679999999989 Li
   0.4979619999999995    0.7955224999999996    0.6594679999999989 Li
   0.9979619999999995    0.2955224999999995    0.6594679999999989 Li
   0.9979619999999993    0.7955224999999996    0.6594679999999989 Li
   0.3005950000000000    0.1996720000000000    0.5038400000000000 Li
   0.3005950000000001    0.6996720000000001    0.5038400000000000 Li
   0.8005949999999999    0.1996720000000001    0.5038400000000000 Li
   0.8005950000000002    0.6996720000000002    0.5038400000000000 Li
   0.1996720000000000    0.3005950000000001    0.0038400000000000 Li
   0.1996720000000000    0.8005950000000001    0.0038400000000000 Li
   0.6996720000000000    0.3005950000000000    0.0038400000000000 Li
   0.6996720000000001    0.8005950000000003    0.0038400000000000 Li
   0.4426789999999999    0.0361625000000000    0.8125770000000000 In
   0.4426790000000000    0.5361625000000001    0.8125770000000000 In
   0.9426789999999999    0.0361625000000000    0.8125770000000000 In
   0.9426789999999998    0.5361625000000001    0.8125770000000000 In
   0.0361625000000000    0.4426790000000001    0.3125770000000000 In
   0.0361625000000000    0.9426790000000002    0.3125770000000000 In
   0.5361625000000000    0.4426790000000000    0.3125770000000000 In
   0.5361625000000001    0.9426790000000003    0.3125770000000000 In
   0.1153265000000000    0.0414325000000000    0.5066710000000000 In
   0.1153265000000000    0.5414325000000001    0.5066710000000000 In
   0.6153265000000000    0.0414325000000000    0.5066710000000000 In
   0.6153265000000001    0.5414325000000002    0.5066710000000000 In
   0.0414325000000000    0.1153265000000000    0.0066710000000000 In
   0.0414324999999999    0.6153265000000001    0.0066710000000000 In
   0.5414324999999999    0.1153265000000000    0.0066710000000000 In
   0.5414325000000000    0.6153265000000001    0.0066710000000000 In
   0.2299240000000000    0.4963600000000001    0.7517379999999999 Ge
   0.2299240000000000    0.9963600000000002    0.7517379999999999 Ge
   0.7299240000000000    0.4963600000000001    0.7517379999999999 Ge
   0.7299240000000000    0.9963600000000001    0.7517379999999999 Ge
   0.4963600000000000    0.2299240000000000    0.2517379999999990 Ge
   0.4963600000000000    0.7299240000000001    0.2517379999999990 Ge
   0.9963600000000000    0.2299240000000000    0.2517379999999990 Ge
   0.9963600000000000    0.7299240000000000    0.2517379999999990 Ge
   0.3700230000000000    0.1156779999999996    0.9923359999999999 S
   0.3700230000000000    0.6156779999999996    0.9923359999999999 S
   0.8700230000000000    0.1156779999999996    0.9923359999999999 S
   0.8700229999999999    0.6156779999999996    0.9923359999999999 S
   0.1156779999999995    0.3700230000000001    0.4923360000000000 S
   0.1156779999999994    0.8700230000000000    0.4923360000000000 S
   0.6156779999999994    0.3700230000000000    0.4923360000000000 S
   0.6156779999999994    0.8700230000000000    0.4923360000000000 S
   0.1629710000000000    0.4417804999999995    0.1216910000000000 S
   0.1629710000000000    0.9417804999999996    0.1216910000000000 S
   0.6629709999999999    0.4417804999999995    0.1216910000000000 S
   0.6629710000000000    0.9417804999999998    0.1216910000000000 S
   0.4417804999999995    0.1629710000000000    0.6216910000000000 S
   0.4417804999999995    0.6629710000000001    0.6216910000000000 S
   0.9417804999999995    0.1629710000000001    0.6216910000000000 S
   0.9417804999999995    0.6629710000000002    0.6216910000000000 S
   0.1405585000000000    0.3955665000000000    0.8083990000000000 S
   0.1405584999999999    0.8955665000000000    0.8083990000000000 S
   0.6405584999999999    0.3955664999999999    0.8083990000000000 S
   0.6405584999999999    0.8955665000000000    0.8083990000000000 S
   0.3955664999999999    0.1405585000000000    0.3083990000000000 S
   0.3955665000000000    0.6405585000000001    0.3083990000000000 S
   0.8955664999999999    0.1405585000000000    0.3083990000000000 S
   0.8955664999999999    0.6405585000000001    0.3083990000000000 S
   0.1387144999999999    0.1578745000000000    0.8042880000000000 S
   0.1387144999999999    0.6578745000000000    0.8042880000000000 S
   0.6387144999999999    0.1578745000000000    0.8042880000000000 S
   0.6387144999999999    0.6578745000000000    0.8042880000000000 S
   0.1578745000000000    0.1387145000000000    0.3042880000000000 S
   0.1578745000000000    0.6387145000000001    0.3042880000000000 S
   0.6578745000000000    0.1387145000000000    0.3042880000000000 S
   0.6578745000000000    0.6387145000000001    0.3042880000000000 S
   0.3803860000000000    0.3956174999999996    0.8284529999999999 S
   0.3803860000000001    0.8956174999999997    0.8284529999999999 S
   0.8803860000000000    0.3956174999999996    0.8284529999999999 S
   0.8803860000000000    0.8956174999999997    0.8284529999999999 S
   0.3956174999999996    0.3803860000000001    0.3284530000000000 S
   0.3956174999999995    0.8803860000000001    0.3284530000000000 S
   0.8956174999999994    0.3803860000000001    0.3284530000000000 S
   0.8956174999999995    0.8803860000000002    0.3284530000000000 S
   0.2810705000000000    0.0203245000000001    0.5609779999999999 S
   0.2810705000000000    0.5203245000000001    0.5609779999999999 S
   0.7810705000000000    0.0203245000000000    0.5609779999999999 S
   0.7810705000000001    0.5203245000000002    0.5609779999999999 S
   0.0203245000000001    0.2810705000000000    0.0609780000000000 S
   0.0203245000000001    0.7810705000000001    0.0609780000000000 S
   0.5203245000000001    0.2810705000000001    0.0609780000000000 S
   0.5203245000000001    0.7810705000000002    0.0609780000000000 S
