Li15 In16 Si8 S48
1.0
   7.1285419999999977   12.2428059999999999    0.0000000000000000
  -7.1285419999999977   12.2428059999999999    0.0000000000000000
   0.0000000000000000    4.1870240000000001   11.4981100000000005
Li In Si S
15 16 8 48
direct
   0.2011650000000000    0.0075530000000000    0.8423410000000000 Li
   0.2011650000000001    0.5075530000000000    0.8423410000000000 Li
   0.7011650000000000    0.0075530000000001    0.8423410000000000 Li
   0.7011650000000000    0.5075530000000000    0.8423410000000000 Li
   0.0075530000000000    0.2011650000000000    0.3423410000000000 Li
   0.4450530000000000    0.2636650000000000    0.3423410000000000 Li
   0.5075530000000000    0.6386650000000000    0.3423410000000000 Li
   0.2382420000000000    0.3490593125000001    0.4777638750000001 Li
   0.1997690000000000    0.7362585000000000    0.4971100000000001 Li
   0.6372690000000001    0.3612585000000000    0.4971100000000001 Li
   0.6997690000000001    0.7362585000000001    0.4971100000000001 Li
   0.2987585000000000    0.1997690000000000    0.9971100000000002 Li
   0.2987585000000001    0.6997690000000001    0.9971100000000002 Li
   0.7987585000000001    0.1997690000000001    0.9971100000000002 Li
   0.7987585000000000    0.6997690000000000    0.9971100000000002 Li
   0.0595594999999995    0.4620180000000000    0.1881410000000000 In
   0.0595594999999995    0.9620180000000000    0.1881410000000000 In
   0.5595594999999995    0.4620180000000000    0.1881410000000000 In
   0.5595594999999995    0.9620180000000000    0.1881410000000000 In
   0.4620180000000000    0.0595594999999995    0.6881410000000000 In
   0.4620179999999999    0.5595594999999994    0.6881410000000000 In
   0.9620179999999999    0.0595594999999994    0.6881410000000000 In
   0.9620180000000000    0.5595594999999995    0.6881410000000000 In
   0.3861330000000000    0.4562265000000000    0.4930529999999991 In
   0.3861330000000000    0.9562265000000000    0.4930529999999991 In
   0.8861330000000001    0.4562265000000000    0.4930529999999991 In
   0.8861330000000001    0.9562265000000000    0.4930529999999991 In
   0.4562264999999999    0.3861329999999999    0.9930530000000000 In
   0.4562265000000000    0.8861330000000001    0.9930530000000000 In
   0.9562265000000001    0.3861330000000001    0.9930530000000000 In
   0.9562265000000001    0.8861330000000002    0.9930530000000000 In
   0.2712029999999996    0.0032215000000000    0.2476710000000000 Si
   0.2712029999999995    0.5032215000000001    0.2476710000000000 Si
   0.7712029999999996    0.0032215000000000    0.2476710000000000 Si
   0.7712029999999996    0.5032215000000000    0.2476710000000000 Si
   0.0032215000000000    0.2712029999999996    0.7476710000000000 Si
   0.0032215000000000    0.7712029999999996    0.7476710000000000 Si
   0.5032215000000001    0.2712029999999995    0.7476710000000000 Si
   0.5032215000000002    0.7712029999999996    0.7476710000000000 Si
   0.1305015000000000    0.3851429999999995    0.0053790000000000 S
   0.1305015000000000    0.8851429999999996    0.0053790000000000 S
   0.6305015000000000    0.3851429999999995    0.0053790000000000 S
   0.6305015000000000    0.8851429999999996    0.0053790000000000 S
   0.3851429999999995    0.1305015000000000    0.5053790000000000 S
   0.3851429999999995    0.6305015000000000    0.5053790000000000 S
   0.8851429999999996    0.1305015000000000    0.5053790000000000 S
   0.8851429999999996    0.6305015000000000    0.5053790000000000 S
   0.3329220000000000    0.0621329999999995    0.8788929999999990 S
   0.3329220000000001    0.5621329999999995    0.8788929999999990 S
   0.8329220000000001    0.0621329999999995    0.8788929999999990 S
   0.8329219999999999    0.5621329999999995    0.8788929999999990 S
   0.0621329999999995    0.3329220000000000    0.3788930000000000 S
   0.0621329999999995    0.8329220000000001    0.3788930000000000 S
   0.5621329999999995    0.3329220000000001    0.3788930000000000 S
   0.5621329999999995    0.8329220000000001    0.3788930000000000 S
   0.3576169999999995    0.1013140000000000    0.1930150000000000 S
   0.3576169999999995    0.6013140000000000    0.1930150000000000 S
   0.8576169999999995    0.1013140000000000    0.1930150000000000 S
   0.8576169999999995    0.6013140000000000    0.1930150000000000 S
   0.1013140000000000    0.3576169999999996    0.6930149999999992 S
   0.1013140000000002    0.8576169999999996    0.6930149999999992 S
   0.6013140000000001    0.3576169999999997    0.6930149999999992 S
   0.6013140000000000    0.8576169999999996    0.6930149999999992 S
   0.3596745000000001    0.3456150000000000    0.1982860000000000 S
   0.3596745000000001    0.8456150000000001    0.1982860000000000 S
   0.8596745000000001    0.3456150000000001    0.1982860000000000 S
   0.8596745000000000    0.8456150000000000    0.1982860000000000 S
   0.3456150000000000    0.3596745000000000    0.6982860000000001 S
   0.3456150000000001    0.8596745000000001    0.6982860000000001 S
   0.8456150000000000    0.3596745000000001    0.6982860000000001 S
   0.8456150000000002    0.8596745000000002    0.6982860000000001 S
   0.1252619999999995    0.1018960000000000    0.1726690000000000 S
   0.1252619999999995    0.6018960000000000    0.1726690000000000 S
   0.6252619999999995    0.1018960000000000    0.1726690000000000 S
   0.6252619999999995    0.6018960000000000    0.1726690000000000 S
   0.1018960000000000    0.1252619999999995    0.6726690000000000 S
   0.1018959999999999    0.6252619999999995    0.6726690000000000 S
   0.6018960000000000    0.1252619999999995    0.6726690000000000 S
   0.6018960000000000    0.6252619999999995    0.6726690000000000 S
   0.2199600000000001    0.4803535000000000    0.4324220000000000 S
   0.2199600000000001    0.9803535000000001    0.4324220000000000 S
   0.7199600000000002    0.4803535000000001    0.4324220000000000 S
   0.7199600000000002    0.9803535000000001    0.4324220000000000 S
   0.4803535000000000    0.2199600000000000    0.9324220000000000 S
   0.4803535000000000    0.7199600000000000    0.9324220000000000 S
   0.9803535000000001    0.2199600000000000    0.9324220000000000 S
   0.9803535000000001    0.7199600000000002    0.9324220000000000 S
